(set-info :source |
 Generated by Alive 0.1
 More info in N. P. Lopes, D. Menendez, S. Nagarakatte, J. Regehr.
 Provably Correct Peephole Optimizations with Alive. In PLDI'15.
|)

(set-info :status unknown)
(declare-fun %Y () (_ BitVec 20))
(declare-fun %X () (_ BitVec 20))
(assert
 (let (($x470249 (and (distinct (bvurem ((_ zero_extend 16) %X) ((_ zero_extend 16) %Y)) ((_ zero_extend 16) (bvurem %X %Y))) true)))
 (let ((?x446384 ((_ zero_extend 16) %Y)))
 (let (($x446397 (and (distinct ?x446384 (_ bv0 36)) true)))
 (and $x446397 $x470249)))))
(check-sat)
